2469
9589
5074
7364
8586
2288
549
10043
1022
6009
1093
4814
7896
6032
1047
7806
5594
9063
9764
9476
3032
5977
9740
8052
8808
6672
6197
7294
4438
4395
8449
2085
8279
8000
878
4555
1985
7811
8143
9696
2376
6754
8852
4198
4744
8641
6730
2903
7491
987
1184
